27 27
21
3 3 4 20
3 4 0 23
3 5 11 0
3 6 17 0
3 7 24 20
3 8 14 19
3 9 4 0
3 10 11 17
3 11 4 9
3 12 11 5
3 19 14 0
3 20 24 0
3 21 17 6
4 3 0 20
4 4 3 23
4 6 7 14
4 7 7 20
4 8 20 0
4 14 7 0
4 19 20 8
4 20 0 0
